
Gurobi 9.0.1 (linux64) logging started Thu Apr 30 23:45:32 2020

Gurobi Optimizer version 9.0.1 build v9.0.1rc0 (linux64)
Optimize a model with 1184 rows, 842 columns and 4340 nonzeros
Model fingerprint: 0xc3aa5aab
Variable types: 0 continuous, 842 integer (810 binary)
Coefficient statistics:
  Matrix range     [1e+00, 8e+00]
  Objective range  [3e+00, 1e+02]
  Bounds range     [1e+00, 1e+00]
  RHS range        [1e+00, 9e+00]

User MIP start produced solution with objective 590 (0.00s)
Loaded user MIP start with objective 590

Presolve removed 480 rows and 316 columns
Presolve time: 0.02s
Presolved: 704 rows, 526 columns, 2912 nonzeros
Variable types: 0 continuous, 526 integer (498 binary)

Root relaxation: objective 3.742500e+02, 637 iterations, 0.03 seconds

    Nodes    |    Current Node    |     Objective Bounds      |     Work
 Expl Unexpl |  Obj  Depth IntInf | Incumbent    BestBd   Gap | It/Node Time

     0     0  374.25000    0   25  590.00000  374.25000  36.6%     -    0s
     0     0  448.00000    0   29  590.00000  448.00000  24.1%     -    0s
     0     0  448.00000    0   39  590.00000  448.00000  24.1%     -    0s
     0     0  448.37500    0   35  590.00000  448.37500  24.0%     -    0s
     0     0  448.56250    0   53  590.00000  448.56250  24.0%     -    0s
     0     0  452.62499    0   49  590.00000  452.62499  23.3%     -    0s
     0     0  454.49999    0   45  590.00000  454.49999  23.0%     -    0s
     0     0  454.49999    0   46  590.00000  454.49999  23.0%     -    0s
     0     0  454.49999    0   46  590.00000  454.49999  23.0%     -    0s
     0     0  454.49999    0   42  590.00000  454.49999  23.0%     -    0s
     0     0  454.49999    0   38  590.00000  454.49999  23.0%     -    0s
     0     0  454.49999    0   39  590.00000  454.49999  23.0%     -    0s
     0     0  454.49999    0   37  590.00000  454.49999  23.0%     -    0s
     0     0  454.49999    0   35  590.00000  454.49999  23.0%     -    0s
     0     0  454.49999    0   30  590.00000  454.49999  23.0%     -    0s
     0     0  454.49999    0   47  590.00000  454.49999  23.0%     -    0s
     0     0  454.49999    0   37  590.00000  454.49999  23.0%     -    0s
     0     0  454.49999    0   37  590.00000  454.49999  23.0%     -    0s
     0     0  454.49999    0   23  590.00000  454.49999  23.0%     -    0s
     0     0  454.49999    0   31  590.00000  454.49999  23.0%     -    0s
     0     0  454.49999    0   39  590.00000  454.49999  23.0%     -    0s
     0     0  454.49999    0   39  590.00000  454.49999  23.0%     -    0s
     0     2  454.49999    0   20  590.00000  454.49999  23.0%     -    0s
H  205   126                     551.0000000  459.49999  16.6%  34.3    1s
H  216    85                     531.0000000  459.49999  13.5%  35.1    1s
H  487   147                     527.0000000  461.00000  12.5%  46.7    2s
   559   192  501.60526   13  222  527.00000  500.00144  5.12%  43.2    5s
   859   295  519.05191   50  177  527.00000  501.66667  4.81%  71.3   10s
  1394   328  510.91265   32  154  527.00000  504.19438  4.33%  73.0   15s
  1837   467  505.62139   33  201  527.00000  505.25000  4.13%  78.4   20s
  2358   580  506.30000   39  178  527.00000  506.21774  3.94%  80.9   25s
  2882   703  513.56667   52  137  527.00000  507.11207  3.77%  86.4   30s
  3334   782  509.21813   40  255  527.00000  507.78694  3.65%  88.9   35s
  3737   841  520.17072   47  185  527.00000  508.71429  3.47%  90.8   40s
  4193   837  517.00000   44   36  527.00000  510.00000  3.23%  93.2   45s
  4660   817  525.92963   51  134  527.00000  511.27607  2.98%  95.1   50s
  5026   814  517.20960   33  263  527.00000  512.00000  2.85%  96.5   55s
  5491   739  521.48009   46  180  527.00000  513.02103  2.65%  98.0   60s
  5975   640  522.78166   50  159  527.00000  514.32885  2.40%  98.8   65s
  6408   541  520.29882   45  250  527.00000  515.78307  2.13%   100   70s
  6836   424  524.42857   41   37  527.00000  517.66906  1.77%   100   75s
  7455   212     cutoff   45       527.00000  520.35027  1.26%  98.8   80s

Cutting planes:
  Learned: 10
  Gomory: 13
  Cover: 44
  Implied bound: 156
  Clique: 1
  MIR: 15
  Flow cover: 69
  GUB cover: 2
  Inf proof: 18
  Zero half: 22
  RLT: 1
  Relax-and-lift: 2

Explored 7733 nodes (756264 simplex iterations) in 81.63 seconds
Thread count was 1 (of 40 available processors)

Solution count 4: 527 531 551 590 

Optimal solution found (tolerance 1.00e-04)
Best objective 5.270000000000e+02, best bound 5.270000000000e+02, gap 0.0000%

User-callback calls 35671, time in user-callback 0.08 sec
